c seed= 1275103536
p cnf 8 32
-8 6 2 0
-5 2 -7 0
6 2 -8 0
8 6 7 0
-2 -7 -1 0
-6 5 -3 0
8 7 -6 0
-8 3 -1 0
4 -7 8 0
-5 -2 4 0
-2 4 6 0
6 -1 2 0
8 -7 5 0
1 -3 2 0
-7 -3 4 0
2 -4 -7 0
8 -5 1 0
4 6 1 0
-2 -4 -5 0
2 8 -7 0
-3 6 -4 0
4 8 6 0
1 -5 -4 0
7 -1 -5 0
1 -3 -4 0
5 1 -3 0
-7 -1 6 0
-6 7 8 0
4 2 1 0
8 1 5 0
-2 1 -7 0
8 5 -2 0
